# Objective value = 38
WA1n 0
WA1p 0
WA2n 0
WA2p 1
WB1n 0
WB1p 1
WC1n 0
WC1p 1
WD1n 2
WD1p 0
WE1n 0
WE1p 2
WE2n 0
WE2p 1
WF1n 3
WF1p 0
WG1n 0
WG1p 7
WG2n 0
WG2p 1
WH1n 10
WH1p 0
WH2n 1
WH2p 0
WT1n 0
WT1p 2
WT2n 0
WT2p 1
5 7
a 0
b 1
c 1
d 1
e 0
f 1
g 1
h 0
i 1
j 1
k 0
l 0
m 1
n 1
